networks/zoo_121_2929/zoo_121_2929.txt
Number of groups: 63
Flow 12: {21 13} {13 74} 
Flow 13: {30 14} {14 75} 
Flow 34: {36 97} 
Flow 35: {1 36} {36 35} {35 37} {37 98} 
Flow 55: {59 120} 
Flow 63: {2 5} {5 8} {8 69} 
Flow 103: {3 36} {36 1} {1 62} 
Flow 158: {56 60} 
Flow 161: {4 38} {38 56} {56 7} {7 68} 
Flow 171: {4 38} {38 36} {36 35} {35 96} 
Flow 172: {4 38} {38 36} {36 97} 
Flow 266: {6 56} {56 29} {29 90} 
Flow 306: {7 46} {46 11} {11 72} 
Flow 325: {15 30} {30 31} {31 92} 
Flow 357: {5 56} {56 38} {38 4} {4 65} 
Flow 397: {8 5} {5 11} {11 46} {46 107} 
Flow 430: {9 23} {23 22} {22 83} 
Flow 446: {22 11} {11 45} 
Flow 487: {36 35} {35 96} 
Flow 505: {10 59} {59 38} {38 57} 
Flow 583: {12 56} {56 11} {11 22} {22 20} {20 81} 
Flow 642: {13 21} {21 22} {22 23} {23 84} 
Flow 699: {60 40} {40 101} 
Flow 700: {14 30} {30 60} {60 41} {41 102} 
Flow 832: {17 35} {35 36} {36 16} {16 77} 
Flow 883: {18 35} {35 32} {32 34} {34 95} 
Flow 973: {11 56} {56 15} {15 35} {35 17} {17 78} 
Flow 998: {20 22} {22 19} {19 44} {44 105} 
Flow 1112: {19 50} {50 51} {51 112} 
Flow 1194: {24 22} {22 21} {21 82} 
Flow 1229: {25 38} {38 59} {59 10} {10 71} 
Flow 1312: {26 38} {38 16} {16 54} {54 115} 
Flow 1371: {27 15} {15 58} {58 119} 
Flow 1375: {28 56} {56 5} {5 2} {2 63} 
Flow 1452: {29 56} {56 45} {45 106} 
Flow 1517: {31 30} {30 15} {15 76} 
Flow 1559: {35 18} {18 57} {57 39} {39 100} 
Flow 1616: {33 50} {50 49} {49 110} 
Flow 1648: {34 32} {32 93} 
Flow 1651: {35 36} {36 97} 
Flow 1658: {34 32} {32 35} {35 15} {15 47} {47 108} 
Flow 1664: {34 32} {35 36} {59 120} 
Flow 1755: {36 35} Flow 1810: {37 35} {35 96} 
Flow 1824: {37 38} {38 52} {52 113} 
Flow 1906: {39 57} {57 18} {18 79} 
Flow 1937: {39 38} {38 36} {36 53} {53 114} 
Flow 2047: {59 120} 
Flow 2058: {42 19} {19 56} {56 12} {12 73} 
Flow 2096: {43 50} {50 19} {19 80} 
Flow 2139: {44 19} {19 22} {22 24} {24 85} 
Flow 2176: {45 11} {11 5} {5 66} 
Flow 2198: {45 56} {56 28} {28 89} 
Flow 2233: {46 7} {7 56} {56 6} {6 67} 
Flow 2295: {48 50} {50 15} {15 56} {56 117} 
Flow 2296: {36 57} {57 118} 
Flow 2320: {49 50} {50 33} {33 94} 
Flow 2406: {51 50} {50 111} 
Flow 2418: {23 9} {9 70} 
Flow 2464: {52 38} {38 40} {40 60} {60 121} 
Flow 2506: {53 36} {36 15} {15 50} {50 43} {43 104} 
Flow 2552: {16 36} {36 97} 
Flow 2554: {54 16} {16 38} {38 39} 
Flow 2591: {41 38} {38 25} {25 86} 
Flow 2594: {55 41} {41 60} {60 30} {30 91} 
Flow 2674: {57 36} {36 3} {3 64} 
Flow 2724: {57 38} {38 41} {41 55} {55 116} 
Flow 2765: {58 15} {15 36} {36 38} {38 99} 
Flow 2873: {40 38} {38 37} 
Flow 2878: {60 56} {56 19} {19 42} {42 103} 
Flow 2912: {61 47} {47 15} {15 27} {27 88} 
Time taken running everything: 629 seconds
