networks/zoo_121_2929/zoo_121_2929.sol
<?xml version = "1.0" encoding="UTF-8" standalone="yes"?>
<CPLEXSolution version="1.2">
 <header
   problemName="networks/zoo_121_2929/zoo_121_2929.lp"
   solutionName="incumbent"
   solutionIndex="-1"
   objectiveValue="63"
   solutionTypeValue="3"
   solutionTypeString="primal"
   solutionStatusValue="107"
   solutionStatusString="time limit exceeded"
   solutionMethodString="mip"
   primalFeasible="1"
   dualFeasible="0"
   MIPNodes="3904"
   MIPIterations="636193"
   writeLevel="3"/>
 <quality
   epInt="1.0000000000000001e-05"
   epRHS="9.9999999999999995e-07"
   maxIntInfeas="1.0077011447506834e-09"
   maxPrimalInfeas="6.000000496442226e-09"
   maxX="4.0000000010000001"
   maxSlack="10.000000001"/>
 <variables>
  <variable name="Y(35,37)" index="4082" value="1"/>
  <variable name="Y(57,1)" index="6664" value="-2.2818413825120842e-12"/>
  <variable name="Y(92,11)" index="10839" value="1"/>
  <variable name="Y(111,10)" index="13099" value="1"/>
  <variable name="Y(168,25)" index="19897" value="1"/>
  <variable name="Y(296,60)" index="35164" value="1"/>
  <variable name="Y(315,20)" index="37385" value="1"/>
  <variable name="Y(359,6)" index="42607" value="1"/>
  <variable name="Y(381,30)" index="45249" value="1"/>
  <variable name="Y(430,22)" index="51072" value="1"/>
  <variable name="Y(431,23)" index="51192" value="1"/>
  <variable name="Y(432,25)" index="51313" value="3.1148236158422392e-10"/>
  <variable name="Y(505,57)" index="60032" value="1"/>
  <variable name="Y(507,59)" index="60272" value="1"/>
  <variable name="Y(534,28)" index="63454" value="1"/>
  <variable name="Y(593,31)" index="70478" value="1"/>
  <variable name="Y(604,42)" index="71798" value="1"/>
  <variable name="Y(629,9)" index="74740" value="1"/>
  <variable name="Y(640,21)" index="76061" value="1"/>
  <variable name="Y(700,41)" index="83221" value="1"/>
  <variable name="Y(822,1)" index="97699" value="-1.1408952507431751e-12"/>
  <variable name="Y(838,25)" index="99627" value="3.4226857522295258e-12"/>
  <variable name="Y(848,39)" index="100831" value="1"/>
  <variable name="Y(883,34)" index="104991" value="1"/>
  <variable name="Y(1000,46)" index="118926" value="1"/>
  <variable name="Y(1210,44)" index="143914" value="1"/>
  <variable name="Y(1220,1)" index="145061" value="3.4226857522295258e-12"/>
  <variable name="Y(1248,38)" index="148430" value="-7.7011071162699439e-12"/>
  <variable name="Y(1250,40)" index="148670" value="1"/>
  <variable name="Y(1310,52)" index="155822" value="1"/>
  <variable name="Y(1370,36)" index="162946" value="1"/>
  <variable name="Y(1384,11)" index="164587" value="1"/>
  <variable name="Y(1435,12)" index="170657" value="1"/>
  <variable name="Y(1517,15)" index="180418" value="1"/>
  <variable name="Y(1525,3)" index="181358" value="1"/>
  <variable name="Y(1616,49)" index="192233" value="1"/>
  <variable name="Y(1631,7)" index="193976" value="1"/>
  <variable name="Y(1648,32)" index="196024" value="1"/>
  <variable name="Y(1768,51)" index="210323" value="1"/>
  <variable name="Y(1826,55)" index="217229" value="1"/>
  <variable name="Y(1829,58)" index="217589" value="1"/>
  <variable name="Y(1906,18)" index="226712" value="1"/>
  <variable name="Y(1923,36)" index="228753" value="1"/>
  <variable name="Y(2028,38)" index="241250" value="1"/>
  <variable name="Y(2082,56)" index="247694" value="1"/>
  <variable name="Y(2101,27)" index="249926" value="1"/>
  <variable name="Y(2157,43)" index="256606" value="1"/>
  <variable name="Y(2179,8)" index="259189" value="1"/>
  <variable name="Y(2199,29)" index="261590" value="1"/>
  <variable name="Y(2229,2)" index="265133" value="1"/>
  <variable name="Y(2261,38)" index="268977" value="1"/>
  <variable name="Y(2292,19)" index="272647" value="1"/>
  <variable name="Y(2320,33)" index="275993" value="1"/>
  <variable name="Y(2349,13)" index="279424" value="1"/>
  <variable name="Y(2406,50)" index="286244" value="1"/>
  <variable name="Y(2453,45)" index="291832" value="1"/>
  <variable name="Y(2480,16)" index="295016" value="1"/>
  <variable name="Y(2522,1)" index="299999" value="1"/>
  <variable name="Y(2537,17)" index="301800" value="1"/>
  <variable name="Y(2544,25)" index="302641" value="-3.1490504733645348e-10"/>
  <variable name="Y(2553,38)" index="303725" value="7.7011071162699488e-12"/>
  <variable name="Y(2554,38)" index="303844" value="1"/>
  <variable name="Y(2581,14)" index="307033" value="1"/>
  <variable name="Y(2675,4)" index="318209" value="1"/>
  <variable name="Y(2722,53)" index="323851" value="1"/>
  <variable name="Y(2728,40)" index="324552" value="1"/>
  <variable name="Y(2752,24)" index="327392" value="1"/>
  <variable name="Y(2774,47)" index="330033" value="1"/>
  <variable name="Y(2842,5)" index="338083" value="1"/>
  <variable name="Y(2889,54)" index="343725" value="1"/>
  <variable name="Y(2918,35)" index="347157" value="1"/>
  <variable name="X(1,36,35)" index="348585" value="1"/>
  <variable name="X(1,62,57)" index="351536" value="-2.2818413825120842e-12"/>
  <variable name="X(1,62,822)" index="352301" value="-1.1408952507431751e-12"/>
  <variable name="X(1,62,1220)" index="352699" value="3.4226857522295258e-12"/>
  <variable name="X(1,62,2522)" index="354001" value="1"/>
  <variable name="X(2,5,92)" index="354500" value="1"/>
  <variable name="X(2,63,2229)" index="359566" value="1"/>
  <variable name="X(3,36,111)" index="360377" value="1"/>
  <variable name="X(3,64,1525)" index="364720" value="1"/>
  <variable name="X(4,38,168)" index="366292" value="1"/>
  <variable name="X(4,65,2675)" index="371728" value="1"/>
  <variable name="X(5,2,2229)" index="374211" value="1"/>
  <variable name="X(5,8,2179)" index="377090" value="1"/>
  <variable name="X(5,11,92)" index="377932" value="1"/>
  <variable name="X(5,56,359)" index="381128" value="1"/>
  <variable name="X(5,66,2842)" index="386540" value="1"/>
  <variable name="X(6,56,296)" index="386923" value="1"/>
  <variable name="X(6,67,359)" index="389915" value="1"/>
  <variable name="X(7,46,315)" index="392800" value="1"/>
  <variable name="X(7,56,2261)" index="397675" value="1"/>
  <variable name="X(7,68,1631)" index="399974" value="1"/>
  <variable name="X(8,5,359)" index="401631" value="1"/>
  <variable name="X(8,69,2179)" index="406380" value="1"/>
  <variable name="X(9,23,431)" index="407561" value="1"/>
  <variable name="X(9,70,629)" index="410688" value="1"/>
  <variable name="X(10,59,507)" index="413495" value="1"/>
  <variable name="X(10,71,111)" index="416028" value="1"/>
  <variable name="X(11,5,2179)" index="421025" value="1"/>
  <variable name="X(11,22,315)" index="422090" value="1"/>
  <variable name="X(11,45,92)" index="424796" value="1"/>
  <variable name="X(11,46,1000)" index="428633" value="1"/>
  <variable name="X(11,56,432)" index="430994" value="1.7520590828048792e-10"/>
  <variable name="X(11,56,534)" index="431096" value="1"/>
  <variable name="X(11,56,1148)" index="431710" value="1.3140552621991745e-10"/>
  <variable name="X(11,56,1171)" index="431733" value="-3.0661143450040537e-10"/>
  <variable name="X(11,72,1384)" index="434875" value="1"/>
  <variable name="X(12,56,604)" index="437024" value="1"/>
  <variable name="X(12,73,1435)" index="440784" value="1"/>
  <variable name="X(13,21,640)" index="442918" value="1"/>
  <variable name="X(13,74,2349)" index="447556" value="1"/>
  <variable name="X(14,30,700)" index="448836" value="1"/>
  <variable name="X(14,75,2581)" index="453646" value="1"/>
  <variable name="X(15,27,2101)" index="456095" value="1"/>
  <variable name="X(15,30,381)" index="457304" value="1"/>
  <variable name="X(15,35,2918)" index="462770" value="1"/>
  <variable name="X(15,36,1370)" index="464151" value="1"/>
  <variable name="X(15,47,2774)" index="468484" value="1"/>
  <variable name="X(15,50,1768)" index="470407" value="1"/>
  <variable name="X(15,56,1631)" index="473199" value="1"/>
  <variable name="X(15,58,1829)" index="476326" value="1"/>
  <variable name="X(15,76,1517)" index="478943" value="1"/>
  <variable name="X(16,36,2522)" index="482877" value="1"/>
  <variable name="X(16,38,2544)" index="485828" value="-1.007701189856641e-09"/>
  <variable name="X(16,38,2553)" index="485837" value="7.7011071162699488e-12"/>
  <variable name="X(16,38,2554)" index="485838" value="1.0000000010000001"/>
  <variable name="X(16,54,2889)" index="489102" value="1"/>
  <variable name="X(16,77,2480)" index="491622" value="1"/>
  <variable name="X(17,35,848)" index="492919" value="1"/>
  <variable name="X(17,78,2537)" index="497537" value="1"/>
  <variable name="X(18,35,883)" index="498812" value="1"/>
  <variable name="X(18,57,848)" index="501706" value="1"/>
  <variable name="X(18,79,1906)" index="505693" value="1"/>
  <variable name="X(19,22,2752)" index="509468" value="1"/>
  <variable name="X(19,42,604)" index="510249" value="1"/>
  <variable name="X(19,44,1210)" index="513784" value="1"/>
  <variable name="X(19,50,2157)" index="517660" value="1"/>
  <variable name="X(19,56,2082)" index="520514" value="1"/>
  <variable name="X(19,80,2292)" index="523653" value="1"/>
  <variable name="X(20,22,1000)" index="525290" value="1"/>
  <variable name="X(20,81,315)" index="527534" value="1"/>
  <variable name="X(21,13,2349)" index="532497" value="1"/>
  <variable name="X(21,22,629)" index="533706" value="1"/>
  <variable name="X(21,82,640)" index="536646" value="1"/>
  <variable name="X(22,11,1000)" index="539935" value="1"/>
  <variable name="X(22,11,1148)" index="540083" value="3.9422971921237432e-10"/>
  <variable name="X(22,11,1171)" index="540106" value="-3.9422971921237443e-10"/>
  <variable name="X(22,19,1210)" index="543074" value="1"/>
  <variable name="X(22,20,315)" index="545108" value="1"/>
  <variable name="X(22,21,2349)" index="550071" value="1"/>
  <variable name="X(22,23,629)" index="551280" value="1"/>
  <variable name="X(22,24,2752)" index="556332" value="1"/>
  <variable name="X(22,83,430)" index="556939" value="1"/>
  <variable name="X(23,9,629)" index="560067" value="1"/>
  <variable name="X(23,22,430)" index="562797" value="1"/>
  <variable name="X(23,84,431)" index="565727" value="1"/>
  <variable name="X(24,22,1210)" index="569435" value="1"/>
  <variable name="X(24,85,2752)" index="573906" value="1"/>
  <variable name="X(25,38,1220)" index="575303" value="7.7011071162699439e-12"/>
  <variable name="X(25,38,1248)" index="575331" value="-7.7011071162699439e-12"/>
  <variable name="X(25,38,1250)" index="575333" value="1"/>
  <variable name="X(25,86,168)" index="577180" value="1"/>
  <variable name="X(25,86,432)" index="577444" value="3.1148236158422392e-10"/>
  <variable name="X(25,86,838)" index="577850" value="3.4226857522295258e-12"/>
  <variable name="X(25,86,2544)" index="579556" value="-3.1490504733645348e-10"/>
  <variable name="X(26,38,1310)" index="581251" value="1"/>
  <variable name="X(27,15,1370)" index="584240" value="1"/>
  <variable name="X(27,88,2101)" index="587900" value="1"/>
  <variable name="X(28,56,1384)" index="590112" value="1"/>
  <variable name="X(28,89,534)" index="592191" value="1"/>
  <variable name="X(29,56,1435)" index="596021" value="1"/>
  <variable name="X(29,90,2199)" index="599714" value="1"/>
  <variable name="X(30,14,2581)" index="603025" value="1"/>
  <variable name="X(30,15,1517)" index="604890" value="1"/>
  <variable name="X(30,31,593)" index="606895" value="1"/>
  <variable name="X(30,60,700)" index="609931" value="1"/>
  <variable name="X(30,91,381)" index="612541" value="1"/>
  <variable name="X(31,30,1517)" index="616606" value="1"/>
  <variable name="X(31,92,593)" index="618611" value="1"/>
  <variable name="X(32,34,883)" index="621830" value="1"/>
  <variable name="X(32,35,1525)" index="625401" value="1"/>
  <variable name="X(32,93,1648)" index="628453" value="1"/>
  <variable name="X(33,50,1616)" index="631350" value="1"/>
  <variable name="X(33,94,2320)" index="634983" value="1"/>
  <variable name="X(34,32,1648)" index="637240" value="1"/>
  <variable name="X(34,95,883)" index="639404" value="1"/>
  <variable name="X(35,15,1829)" index="643279" value="1"/>
  <variable name="X(35,17,2537)" index="646916" value="1"/>
  <variable name="X(35,18,848)" index="648156" value="1"/>
  <variable name="X(35,32,883)" index="651120" value="1"/>
  <variable name="X(35,36,822)" index="653988" value="-1.1408952507431751e-12"/>
  <variable name="X(35,36,1525)" index="654691" value="1.0000000000011409"/>
  <variable name="X(35,37,35)" index="656130" value="1"/>
  <variable name="X(35,96,2918)" index="661942" value="1"/>
  <variable name="X(36,1,822)" index="662775" value="-3.4226857522295258e-12"/>
  <variable name="X(36,1,1220)" index="663173" value="3.4226857522295258e-12"/>
  <variable name="X(36,1,2522)" index="664475" value="1"/>
  <variable name="X(36,3,1525)" index="666407" value="1"/>
  <variable name="X(36,15,1768)" index="669579" value="1"/>
  <variable name="X(36,16,2480)" index="673220" value="1"/>
  <variable name="X(36,35,35)" index="673704" value="1"/>
  <variable name="X(36,38,111)" index="676709" value="1"/>
  <variable name="X(36,53,2722)" index="682249" value="1"/>
  <variable name="X(36,57,1370)" index="683826" value="1"/>
  <variable name="X(36,97,1923)" index="687308" value="1"/>
  <variable name="X(37,35,1829)" index="690143" value="1"/>
  <variable name="X(37,38,1826)" index="693069" value="1"/>
  <variable name="X(37,98,35)" index="694207" value="1"/>
  <variable name="X(38,4,2675)" index="699776" value="1"/>
  <variable name="X(38,16,2889)" index="702919" value="1"/>
  <variable name="X(38,25,168)" index="703127" value="1"/>
  <variable name="X(38,25,432)" index="703391" value="3.1148236158422392e-10"/>
  <variable name="X(38,25,1913)" index="704872" value="-5.9563362095050976e-11"/>
  <variable name="X(38,25,2544)" index="705503" value="-2.5191899948917294e-10"/>
  <variable name="X(38,36,1220)" index="707108" value="2.5669501404186343e-12"/>
  <variable name="X(38,36,1923)" index="707811" value="1"/>
  <variable name="X(38,36,1983)" index="707871" value="-2.5669501404186343e-12"/>
  <variable name="X(38,37,2028)" index="710845" value="1"/>
  <variable name="X(38,39,2554)" index="714300" value="1"/>
  <variable name="X(38,40,1250)" index="715925" value="1"/>
  <variable name="X(38,41,1826)" index="719430" value="1"/>
  <variable name="X(38,52,1310)" index="721843" value="1"/>
  <variable name="X(38,56,2453)" index="725915" value="1"/>
  <variable name="X(38,57,505)" index="726896" value="1"/>
  <variable name="X(38,59,111)" index="729431" value="1"/>
  <variable name="X(38,99,1248)" index="733497" value="-7.7011071162699439e-12"/>
  <variable name="X(38,99,2261)" index="734510" value="1"/>
  <variable name="X(38,99,2553)" index="734802" value="7.7011071162699488e-12"/>
  <variable name="X(39,38,1923)" index="737101" value="1"/>
  <variable name="X(39,57,1906)" index="740013" value="1"/>
  <variable name="X(39,100,848)" index="741884" value="1"/>
  <variable name="X(40,38,2889)" index="746854" value="1"/>
  <variable name="X(40,60,2728)" index="749622" value="1"/>
  <variable name="X(40,101,1250)" index="751073" value="1"/>
  <variable name="X(41,38,2028)" index="754780" value="1"/>
  <variable name="X(41,55,1826)" index="757507" value="1"/>
  <variable name="X(41,60,2581)" index="761191" value="1"/>
  <variable name="X(41,102,700)" index="762239" value="1"/>
  <variable name="X(42,19,2082)" index="766550" value="1"/>
  <variable name="X(42,103,604)" index="768001" value="1"/>
  <variable name="X(43,50,2101)" index="772427" value="1"/>
  <variable name="X(43,104,2157)" index="775412" value="1"/>
  <variable name="X(44,19,2157)" index="778341" value="1"/>
  <variable name="X(44,105,1210)" index="780323" value="1"/>
  <variable name="X(45,11,2179)" index="784221" value="1"/>
  <variable name="X(45,56,2199)" index="787170" value="1"/>
  <variable name="X(45,106,2453)" index="790353" value="1"/>
  <variable name="X(46,7,2261)" index="793090" value="1"/>
  <variable name="X(46,11,315)" index="794073" value="1"/>
  <variable name="X(46,107,1000)" index="797687" value="1"/>
  <variable name="X(47,15,2918)" index="802534" value="1"/>
  <variable name="X(47,108,2774)" index="805319" value="1"/>
  <variable name="X(48,50,2292)" index="807766" value="1"/>
  <variable name="X(49,50,2320)" index="810723" value="1"/>
  <variable name="X(49,110,1616)" index="812948" value="1"/>
  <variable name="X(50,15,2101)" index="816362" value="1"/>
  <variable name="X(50,19,2292)" index="819482" value="1"/>
  <variable name="X(50,33,2320)" index="822439" value="1"/>
  <variable name="X(50,43,2157)" index="825205" value="1"/>
  <variable name="X(50,49,1616)" index="827593" value="1"/>
  <variable name="X(50,51,1768)" index="830674" value="1"/>
  <variable name="X(50,111,2406)" index="834241" value="1"/>
  <variable name="X(51,50,2406)" index="837170" value="1"/>
  <variable name="X(51,112,1768)" index="839461" value="1"/>
  <variable name="X(52,38,2453)" index="843075" value="1"/>
  <variable name="X(52,113,1310)" index="844861" value="1"/>
  <variable name="X(53,36,2480)" index="848960" value="1"/>
  <variable name="X(53,114,2722)" index="852131" value="1"/>
  <variable name="X(54,16,2522)" index="854860" value="1"/>
  <variable name="X(54,16,2553)" index="854891" value="7.7011071162699488e-12"/>
  <variable name="X(54,16,2566)" index="854904" value="-7.7011071162699488e-12"/>
  <variable name="X(54,115,2889)" index="858156" value="1"/>
  <variable name="X(55,41,2581)" index="860777" value="1"/>
  <variable name="X(55,116,1826)" index="862951" value="1"/>
  <variable name="X(56,5,2842)" index="866896" value="1"/>
  <variable name="X(56,6,359)" index="867342" value="1"/>
  <variable name="X(56,7,1631)" index="871543" value="1"/>
  <variable name="X(56,11,1384)" index="874225" value="1"/>
  <variable name="X(56,12,1435)" index="877205" value="1"/>
  <variable name="X(56,15,381)" index="879080" value="1"/>
  <variable name="X(56,19,604)" index="882232" value="1"/>
  <variable name="X(56,28,534)" index="885091" value="1"/>
  <variable name="X(56,29,2199)" index="889685" value="1"/>
  <variable name="X(56,38,432)" index="890847" value="2.3360593103989197e-10"/>
  <variable name="X(56,38,1171)" index="891586" value="-2.3360593103989197e-10"/>
  <variable name="X(56,38,2261)" index="892676" value="1"/>
  <variable name="X(56,45,2453)" index="895797" value="1"/>
  <variable name="X(56,60,296)" index="896569" value="1"/>
  <variable name="X(56,117,2082)" index="901284" value="1"/>
  <variable name="X(57,18,1906)" index="904037" value="1"/>
  <variable name="X(57,36,2722)" index="907782" value="1"/>
  <variable name="X(57,38,2675)" index="910664" value="1"/>
  <variable name="X(57,39,848)" index="911766" value="1"/>
  <variable name="X(57,118,505)" index="914352" value="1"/>
  <variable name="X(58,15,2774)" index="919550" value="1"/>
  <variable name="X(58,119,1829)" index="921534" value="1"/>
  <variable name="X(59,10,111)" index="922745" value="1"/>
  <variable name="X(59,38,505)" index="926068" value="1"/>
  <variable name="X(59,120,507)" index="928999" value="1"/>
  <variable name="X(60,30,2581)" index="934002" value="1"/>
  <variable name="X(60,40,2889)" index="937239" value="1"/>
  <variable name="X(60,41,700)" index="937979" value="1"/>
  <variable name="X(60,56,2842)" index="943050" value="1"/>
  <variable name="X(60,121,296)" index="943433" value="1"/>
  <variable name="X(61,47,2918)" index="948984" value="1"/>
  <variable name="C(35,36)" index="949166" value="1"/>
  <variable name="C(35,35)" index="949167" value="2"/>
  <variable name="C(35,37)" index="949168" value="3"/>
  <variable name="C(92,5)" index="949433" value="1"/>
  <variable name="C(92,11)" index="949434" value="2"/>
  <variable name="C(111,36)" index="949529" value="1"/>
  <variable name="C(111,38)" index="949530" value="2"/>
  <variable name="C(111,59)" index="949531" value="3"/>
  <variable name="C(111,10)" index="949532" value="4"/>
  <variable name="C(168,38)" index="949790" value="1"/>
  <variable name="C(168,25)" index="949791" value="2"/>
  <variable name="C(296,56)" index="950307" value="1"/>
  <variable name="C(296,60)" index="950308" value="2"/>
  <variable name="C(315,46)" index="950386" value="1"/>
  <variable name="C(315,11)" index="950387" value="2"/>
  <variable name="C(315,22)" index="950388" value="3"/>
  <variable name="C(315,20)" index="950389" value="4"/>
  <variable name="C(359,5)" index="950570" value="1"/>
  <variable name="C(359,56)" index="950571" value="2"/>
  <variable name="C(359,6)" index="950572" value="3"/>
  <variable name="C(381,15)" index="950678" value="1"/>
  <variable name="C(381,30)" index="950679" value="2"/>
  <variable name="C(430,22)" index="950951" value="1"/>
  <variable name="C(431,23)" index="950953" value="0.99999999999999978"/>
  <variable name="C(432,56)" index="950958" value="7.0084115371277969e-10"/>
  <variable name="C(432,38)" index="950959" value="9.3444708475267171e-10"/>
  <variable name="C(432,25)" index="950960" value="1.2459294463368957e-09"/>
  <variable name="C(505,38)" index="951385" value="1"/>
  <variable name="C(505,57)" index="951386" value="2"/>
  <variable name="C(507,59)" index="951394" value="1"/>
  <variable name="C(534,56)" index="951492" value="1"/>
  <variable name="C(534,28)" index="951493" value="2"/>
  <variable name="C(593,31)" index="951737" value="1"/>
  <variable name="C(604,56)" index="951782" value="1"/>
  <variable name="C(604,19)" index="951783" value="2"/>
  <variable name="C(604,42)" index="951784" value="3"/>
  <variable name="C(629,22)" index="951904" value="1"/>
  <variable name="C(629,23)" index="951905" value="2"/>
  <variable name="C(629,9)" index="951906" value="3"/>
  <variable name="C(640,21)" index="951971" value="1"/>
  <variable name="C(700,30)" index="952313" value="1"/>
  <variable name="C(700,60)" index="952314" value="2"/>
  <variable name="C(700,41)" index="952315" value="3"/>
  <variable name="C(822,36)" index="952779" value="-1.1408952507431751e-12"/>
  <variable name="C(822,1)" index="952780" value="-4.5635810029727005e-12"/>
  <variable name="C(848,35)" index="952901" value="1"/>
  <variable name="C(848,18)" index="952902" value="2"/>
  <variable name="C(848,57)" index="952903" value="3"/>
  <variable name="C(848,39)" index="952904" value="4"/>
  <variable name="C(883,35)" index="953073" value="1"/>
  <variable name="C(883,32)" index="953074" value="2"/>
  <variable name="C(883,34)" index="953075" value="3"/>
  <variable name="C(1000,22)" index="953576" value="1"/>
  <variable name="C(1000,11)" index="953577" value="2"/>
  <variable name="C(1000,46)" index="953578" value="3"/>
  <variable name="C(1148,11)" index="954305" value="3.9422971921237432e-10"/>
  <variable name="C(1148,56)" index="954306" value="5.256352454322918e-10"/>
  <variable name="C(1148,29)" index="954307" value="5.256352454322918e-10"/>
  <variable name="C(1171,11)" index="954433" value="-3.9422971921237443e-10"/>
  <variable name="C(1171,56)" index="954434" value="-7.008411537127798e-10"/>
  <variable name="C(1171,38)" index="954435" value="-9.3444708475267171e-10"/>
  <variable name="C(1171,16)" index="954436" value="-9.3444708475267171e-10"/>
  <variable name="C(1171,54)" index="954437" value="-9.3444708475267171e-10"/>
  <variable name="C(1210,24)" index="954638" value="1.0000000010000001"/>
  <variable name="C(1210,22)" index="954639" value="2.0000000010000001"/>
  <variable name="C(1210,19)" index="954640" value="3.0000000010000001"/>
  <variable name="C(1210,44)" index="954641" value="4.0000000010000001"/>
  <variable name="C(1220,38)" index="954691" value="7.7011071162699439e-12"/>
  <variable name="C(1220,36)" index="954692" value="1.0268057256688578e-11"/>
  <variable name="C(1220,1)" index="954693" value="1.3690743008918103e-11"/>
  <variable name="C(1248,38)" index="954819" value="-7.7011071162699439e-12"/>
  <variable name="C(1250,38)" index="954824" value="1"/>
  <variable name="C(1250,40)" index="954825" value="1.9999999999999991"/>
  <variable name="C(1310,38)" index="955089" value="1"/>
  <variable name="C(1310,52)" index="955090" value="2"/>
  <variable name="C(1370,15)" index="955349" value="1"/>
  <variable name="C(1370,36)" index="955350" value="2"/>
  <variable name="C(1384,56)" index="955407" value="1"/>
  <variable name="C(1384,11)" index="955408" value="2"/>
  <variable name="C(1435,56)" index="955618" value="1"/>
  <variable name="C(1435,12)" index="955619" value="2"/>
  <variable name="C(1517,30)" index="955956" value="1"/>
  <variable name="C(1517,15)" index="955957" value="2"/>
  <variable name="C(1525,35)" index="955992" value="1"/>
  <variable name="C(1525,36)" index="955993" value="2.0000000000011409"/>
  <variable name="C(1525,3)" index="955994" value="3.0000000000011409"/>
  <variable name="C(1616,50)" index="956441" value="1"/>
  <variable name="C(1616,49)" index="956442" value="2"/>
  <variable name="C(1631,56)" index="956522" value="1"/>
  <variable name="C(1631,7)" index="956523" value="2"/>
  <variable name="C(1648,32)" index="956625" value="1"/>
  <variable name="C(1768,15)" index="957119" value="1"/>
  <variable name="C(1768,50)" index="957120" value="2"/>
  <variable name="C(1768,51)" index="957121" value="3"/>
  <variable name="C(1826,38)" index="957348" value="1"/>
  <variable name="C(1826,41)" index="957349" value="2"/>
  <variable name="C(1826,55)" index="957350" value="3"/>
  <variable name="C(1829,35)" index="957358" value="1"/>
  <variable name="C(1829,15)" index="957359" value="2"/>
  <variable name="C(1829,58)" index="957360" value="3"/>
  <variable name="C(1906,57)" index="957646" value="1"/>
  <variable name="C(1906,18)" index="957647" value="2"/>
  <variable name="C(1913,25)" index="957683" value="-5.9563362095050976e-11"/>
  <variable name="C(1923,38)" index="957730" value="1"/>
  <variable name="C(1923,36)" index="957731" value="2"/>
  <variable name="C(1983,36)" index="957984" value="-2.5669501404186343e-12"/>
  <variable name="C(1983,15)" index="957985" value="-2.5669501404186343e-12"/>
  <variable name="C(1983,47)" index="957986" value="-2.5669501404186343e-12"/>
  <variable name="C(2028,38)" index="958180" value="1"/>
  <variable name="C(2082,19)" index="958412" value="1"/>
  <variable name="C(2082,56)" index="958413" value="2"/>
  <variable name="C(2101,50)" index="958503" value="1"/>
  <variable name="C(2101,15)" index="958504" value="2"/>
  <variable name="C(2101,27)" index="958505" value="3"/>
  <variable name="C(2157,19)" index="958767" value="1"/>
  <variable name="C(2157,50)" index="958768" value="2"/>
  <variable name="C(2157,43)" index="958769" value="3"/>
  <variable name="C(2179,11)" index="958864" value="1"/>
  <variable name="C(2179,5)" index="958865" value="2"/>
  <variable name="C(2179,8)" index="958866" value="3"/>
  <variable name="C(2199,56)" index="958943" value="1"/>
  <variable name="C(2199,29)" index="958944" value="2"/>
  <variable name="C(2229,2)" index="959071" value="1"/>
  <variable name="C(2261,7)" index="959217" value="1"/>
  <variable name="C(2261,56)" index="959218" value="2"/>
  <variable name="C(2261,38)" index="959219" value="3"/>
  <variable name="C(2292,50)" index="959351" value="1"/>
  <variable name="C(2292,19)" index="959352" value="2"/>
  <variable name="C(2320,50)" index="959485" value="1"/>
  <variable name="C(2320,33)" index="959486" value="2"/>
  <variable name="C(2349,21)" index="959623" value="1"/>
  <variable name="C(2349,13)" index="959624" value="2"/>
  <variable name="C(2406,50)" index="959847" value="1"/>
  <variable name="C(2453,38)" index="960058" value="1"/>
  <variable name="C(2453,56)" index="960059" value="2"/>
  <variable name="C(2453,45)" index="960060" value="3"/>
  <variable name="C(2480,36)" index="960185" value="1"/>
  <variable name="C(2480,16)" index="960186" value="2"/>
  <variable name="C(2522,16)" index="960379" value="1"/>
  <variable name="C(2522,36)" index="960380" value="2"/>
  <variable name="C(2522,1)" index="960381" value="3"/>
  <variable name="C(2537,17)" index="960456" value="1"/>
  <variable name="C(2544,38)" index="960496" value="-1.007701189856641e-09"/>
  <variable name="C(2544,25)" index="960497" value="-1.2596201893458139e-09"/>
  <variable name="C(2553,16)" index="960538" value="7.7011071162699488e-12"/>
  <variable name="C(2553,38)" index="960539" value="1.5402214232539898e-11"/>
  <variable name="C(2554,38)" index="960542" value="1.0000000010000001"/>
  <variable name="C(2566,16)" index="960597" value="-7.7011071162699488e-12"/>
  <variable name="C(2581,41)" index="960674" value="1"/>
  <variable name="C(2581,60)" index="960675" value="2"/>
  <variable name="C(2581,30)" index="960676" value="3"/>
  <variable name="C(2581,14)" index="960677" value="4"/>
  <variable name="C(2675,38)" index="961041" value="1"/>
  <variable name="C(2675,4)" index="961042" value="2"/>
  <variable name="C(2722,36)" index="961238" value="1"/>
  <variable name="C(2722,53)" index="961239" value="2"/>
  <variable name="C(2752,22)" index="961374" value="1"/>
  <variable name="C(2752,24)" index="961375" value="2"/>
  <variable name="C(2774,15)" index="961465" value="1"/>
  <variable name="C(2774,47)" index="961466" value="2"/>
  <variable name="C(2842,56)" index="961761" value="1"/>
  <variable name="C(2842,5)" index="961762" value="2"/>
  <variable name="C(2889,40)" index="961949" value="0.99999999999999956"/>
  <variable name="C(2889,38)" index="961950" value="1.9999999999999996"/>
  <variable name="C(2889,16)" index="961951" value="2.9999999999999996"/>
  <variable name="C(2889,54)" index="961952" value="3.9999999999999996"/>
  <variable name="C(2918,47)" index="962095" value="1"/>
  <variable name="C(2918,15)" index="962096" value="2"/>
  <variable name="C(2918,35)" index="962097" value="3"/>
 </variables>
</CPLEXSolution>
